db/data/2711718934193153110227300205762766010158.z3.out
-------------------
2500.115779288
